c array.sh: path:     /home/seidl/data/parity/parity20.qdimacs
c array.sh: name:     parity20
c array.sh: task:     7
c array.sh: host:     c3n04
c array.sh: uname:    Linux c3n04 4.15.0-135-generic #139-Ubuntu SMP Mon Jan 18 17:38:24 UTC 2021 x86_64 x86_64 x86_64 GNU/Linux
c array.sh: start:    Tue Feb 16 22:30:17 CET 2021
c array.sh: noturbo:  1
c array.sh: governor: 32 performance
c array.sh: tmp:      1%
c array.sh: unzipped: /tmp/local-unzipped-18834717-7-parity20.cnf
using tmp directory:
  /tmp
running QBF solver...

/home/seidl/cert_tests/bin/ferp-models/ijtihad/ijtihad --dependencies=0 --wit_per_call=-1 --cex_per_call=-1 --log_phi=/tmp/ferpcert3153expanded.cnf /tmp/local-unzipped-18834717-7-parity20.cnf
c Options after parsing: 
c cex_per_call = 18446744073709551615
c wit_per_call = 18446744073709551615
c warmup = 1
c warmup_randoms = 0
c trimming_phi = 0
c trimming_ksi = 2
c trimming_interval = 200
c memory_limit = 3000000
c MySolverv970-glucose
-1 
1 
c Number of calls is: 0
c Layers in PHI: 0
c Layers in KSI: 0
c Running Ijtihad loop
c sat_solver_phi calld 0 times, running for 0 seconds.
c number of layers in PHI is 2
c sat_solver_ksi was running for 0 seconds.
c number of layers in KSI is 0
c mysolver was running for 0 seconds.
s cnf 0
solving done with exit code 20

QBF solver OK

running SAT Solver...

/tmp/ferpcert3153expanded.cnf
s UNSATISFIABLE

PROOF GENERATION OK

checking unsat proof

resolved 1 root and 1 empty clause
trace-size2: 29205

TRACE CHECK OK

running toferp...

ferp-size: 30186
TOFERP OK

checking FERP PROOF...

FERP CHECK OK

extracting AIG ...

aig-size: 854356
aig-header: aag 48747 39 0 1 48708
FERP CERT OK

merging  AIG into QBF ...

CERTCHECK OK

merged-cnf-header: p cnf 49019 146819
merged-cnf-size: 2453847
running SAT solver...

c ---- [ banner ] ------------------------------------------------------------
c
c KISSAT SAT Solver
c Copyright (c) 2019-2020 Armin Biere JKU Linz
c 
c Version 1.0.3 59813addcacc4d6fb880ebdd63685600475aa940
c gcc (Ubuntu 7.5.0-3ubuntu1~18.04) 7.5.0 -W -Wall -O3 -DNEMBEDDED -DNDEBUG -DNMETRICS -DNSTATISTICS
c Sun Feb 14 23:58:54 CET 2021 Linux cluster3 4.15.0-135-generic x86_64
c
c ---- [ parsing ] -----------------------------------------------------------
c
c opened and reading DIMACS file:
c 
c   /tmp/ferpcert_merged_cnf3153.cnf
c 
c parsed 'p cnf 49019 146819' header
c closing input after reading 2453847 bytes (2 MB)
c finished parsing after 0.04 seconds
c
c ---- [ solving ] -----------------------------------------------------------
c
c  seconds reductions redundant irredundant
c         MB   restarts    trail       variables
c          level  conflicts   glue          remaining
c
c *  0.04  9 0  0  0   0   0 0% 0 146817 48823 100%
c {  0.04  9 0  0  0   0   0 0% 0 146817 48823 100%
c i  0.04 10 42  0  0  12  11 88% 3 146817 48822 100%
c i  0.04 10 35  0  0  18  16 52% 3 146817 48821 100%
c i  0.07 10 32  0  0 184 162 34% 2 146817 48820 100%
c -  0.12 11 29  1 36 300 262 44% 3 146498 48820 100%
c i  0.13 11 29  1 39 319 278 43% 3 146498 48818 100%
c i  0.13 11 29  1 39 321 279 44% 3 146498 48816 100%
c i  0.14 11 27  1 39 388 343 41% 3 146498 48815 100%
c i  0.17 11 26  1 51 540 486 46% 3 146498 48814 100%
c i  0.21 11 26  1 60 696 637 52% 3 146498 48813 100%
c i  0.23 11 26  1 65 777 715 50% 3 146498 48811 100%
c i  0.24 11 27  1 65 818 753 49% 3 146498 48810 100%
c i  0.24 11 27  1 65 819 753 49% 3 146498 48804 100%
c -  0.27 11 27  2 78 901 794 51% 3 146456 48804 100%
c i  0.28 11 26  2 87 913 805 51% 3 146456 48803 100%
c i  0.30 11 26  2 104 997 883 51% 3 146456 48802 100%
c }  0.30 11 26  2 104 1000 886 51% 3 146456 48802 100%
c [  0.30 11 0  2 104 1000 886 0% 0 146456 48802 100%
c O  0.32 11 100  2 104 1002 887 47% 3 146365 48802 100%
c
c  seconds   reductions   redundant irredundant
c         MB     restarts       trail       variables
c           level    conflicts     glue          remaining
c
c i  0.32 11 145  2 104 1004 888 59% 2 146365 48800 100%
c i  0.32 11 177  2 104 1011 894 73% 1 146365 48799 100%
c i  0.36 12 40  2 104 1048 930 87% 5 146365 48798 100%
c i  0.54 12 22  2 104 1536 1373 50% 6 146365 48797 100%
c ]  0.58 12 22  2 104 1580 1409 51% 6 146365 48797 100%
c {  0.58 12 26  2 104 1580 1409 51% 3 146365 48797 100%
c i  0.60 12 25  2 127 1649 1471 48% 3 146365 48796 100%
c i  0.62 12 25  2 129 1710 1531 48% 3 146365 48794 100%
c -  0.65 12 26  3 129 1801 1390 49% 3 146342 48794 100%
c i  0.66 12 27  3 129 1829 1414 49% 3 146342 48793 100%
c i  0.68 12 26  3 136 1888 1470 49% 3 146342 48792 100%
c i  0.68 12 26  3 136 1892 1473 49% 3 146342 48786 100%
c i  0.73 12 26  3 152 2037 1614 51% 3 146342 48785 100%
c i  0.73 12 26  3 153 2065 1638 50% 3 146342 48784 100%
c i  0.75 12 26  3 155 2118 1688 49% 3 146342 48775 100%
c i  0.78 12 28  3 161 2253 1819 49% 3 146342 48772 99%
c i  0.81 12 27  3 164 2391 1947 47% 3 146342 48771 99%
c i  0.83 12 27  3 164 2459 2011 49% 3 146342 48770 99%
c d  0.85 12 27  3 167 2500 2017 48% 3 146245 48730 99%
c d  0.86 12 27  3 167 2500 2010 48% 3 146129 48675 99%
c
c  seconds  reductions   redundant  irredundant
c         MB    restarts        trail       variables
c          level    conflicts      glue          remaining
c
c 3  0.88 13 27  3 167 2500 4663 48% 3 146129 48675 99%
c t  0.90 13 27  3 167 2500 4662 48% 3 144982 48414 99%
c f  1.00 13 27  3 167 2500 42792 48% 3 144924 48219 98%
c f  1.00 13 27  3 167 2500 42783 48% 3 144897 48219 98%
c u  1.13 13 27  3 167 2500 42650 48% 3 144897 48219 98%
c v  1.17 13 27  3 167 2500 42511 48% 3 144897 48219 98%
c w  1.21 14 27  3 167 2500 42523 48% 3 144879 48131 98%
c d  1.23 14 27  3 167 2500 41009 48% 3 141596 46461 95%
c d  1.24 14 27  3 167 2500 41000 48% 3 141490 46408 95%
c i  1.24 14 27  3 167 2500 41000 48% 3 141490 46408 95%
c i  1.27 14 26  3 187 2548 41046 48% 3 141490 46407 95%
c i  1.39 14 25  3 249 2768 41262 47% 4 141490 46406 95%
c -  1.51 14 26  4 291 3001 5789 48% 4 139954 46406 95%
c I  1.51 14 26  4 292 3003 5791 48% 4 139954 46406 95%
c i  1.52 14 26  4 300 3022 5809 48% 4 139954 46404 95%
c i  1.53 14 26  4 306 3037 5823 48% 4 139954 46403 95%
c i  1.56 14 25  4 324 3085 5870 47% 4 139954 46402 95%
c i  1.66 14 25  4 362 3387 6160 46% 4 139954 46401 95%
c i  1.66 14 24  4 364 3392 6163 46% 4 139954 46399 95%
c i  1.76 14 24  4 424 3562 6329 46% 4 139954 46397 95%
c
c  seconds  reductions   redundant  irredundant
c         MB    restarts        trail       variables
c          level    conflicts      glue          remaining
c
c }  1.77 14 24  4 429 3580 6345 45% 4 139954 46397 95%
c [  1.77 14 22  4 429 3580 6345 51% 6 139954 46397 95%
c i  1.79 14 23  4 429 3646 6409 52% 6 139954 46396 95%
c i  1.80 14 27  4 429 3705 6465 50% 6 139954 46395 95%
c i  1.83 14 28  4 429 3821 6574 51% 6 139954 46394 95%
c i  1.98 14 25  4 429 4154 6892 53% 7 139954 46393 95%
c -  2.22 14 24  5 429 4502 4575 54% 8 139912 46393 95%
c ]  2.59 14 22  5 430 5053 5073 52% 8 139912 46393 95%
c {  2.59 14 24  5 430 5053 5073 45% 4 139912 46393 95%
c i  2.60 14 24  5 432 5064 5083 45% 4 139912 46392 95%
c i  2.84 14 24  5 473 5723 5703 45% 4 139912 46391 95%
c i  2.92 14 23  5 530 5882 5848 44% 4 139912 46390 95%
c i  2.94 14 23  5 538 5902 5867 44% 4 139912 46389 95%
c i  2.97 14 23  5 557 5963 5924 44% 4 139912 46388 95%
c a  2.99 14 23  5 557 6004 5963 44% 4 139864 46378 95%
c B  3.00 14 23  5 557 6005 5964 44% 4 139864 46378 95%
c i  3.00 14 24  5 557 6039 5997 44% 4 139864 46374 95%
c i  3.02 14 24  5 557 6104 6057 44% 4 139864 46373 95%
c -  3.12 14 23  6 598 6302 3986 46% 4 139852 46373 95%
c i  3.22 14 24  6 664 6483 4155 46% 4 139852 46372 95%
c
c  seconds  reductions   redundant  irredundant
c         MB    restarts        trail       variables
c          level    conflicts      glue          remaining
c
c i  3.25 14 24  6 676 6573 4241 46% 4 139852 46371 95%
c i  3.50 14 24  6 792 6945 4606 46% 4 139852 46367 95%
c i  3.65 14 24  6 839 7281 4928 46% 4 139852 46365 95%
c i  3.65 14 24  6 839 7282 4928 46% 4 139852 46364 95%
c i  3.70 14 24  6 863 7387 5027 46% 4 139852 46363 95%
c d  3.76 15 24  6 878 7501 5076 46% 4 139785 46328 95%
c d  3.76 15 24  6 878 7501 5076 46% 4 139687 46288 94%
c 3  3.79 15 24  6 878 7501 7877 46% 4 139687 46288 94%
c t  3.81 15 24  6 878 7501 7862 46% 4 138739 46130 94%
c f  3.89 15 24  6 878 7501 42570 46% 4 138705 46014 94%
c u  3.99 15 24  6 878 7501 42409 46% 4 138705 46011 94%
c v  4.01 15 24  6 878 7501 42244 46% 4 138705 46011 94%
c w  4.06 15 24  6 878 7501 42366 46% 4 138650 45985 94%
c d  4.07 15 24  6 878 7501 41560 46% 4 136845 45059 92%
c d  4.08 15 24  6 878 7501 41555 46% 4 136818 45046 92%
c i  4.08 15 24  6 878 7501 41555 46% 4 136818 45046 92%
c i  4.14 15 24  6 896 7576 41629 46% 4 136818 45045 92%
c i  4.24 15 23  6 942 7734 41781 46% 4 136818 45044 92%
c i  4.24 15 23  6 945 7748 41794 46% 4 136818 45039 92%
c i  4.27 15 23  6 953 7806 41849 46% 4 136818 45038 92%
c
c  seconds  reductions     redundant  irredundant
c         MB     restarts         trail       variables
c          level     conflicts       glue          remaining
c
c i  4.44 16 23  6 1027 8045 42075 46% 4 136818 45037 92%
c i  4.46 16 23  6 1035 8095 42124 46% 4 136818 45036 92%
c i  4.46 16 23  6 1035 8096 42124 46% 4 136818 45035 92%
c i  4.49 16 23  6 1036 8193 42219 46% 4 136818 45034 92%
c i  4.49 16 23  6 1036 8211 42235 46% 4 136818 45032 92%
c i  4.49 16 23  6 1036 8212 42235 45% 4 136818 45031 92%
c i  4.49 16 23  6 1036 8213 42235 45% 4 136818 45030 92%
c -  4.57 16 23  7 1038 8404 6601 46% 4 135933 45030 92%
c i  4.68 16 23  7 1086 8586 6774 46% 4 135933 45029 92%
c i  4.71 16 23  7 1095 8638 6823 46% 4 135933 45028 92%
c i  4.83 16 23  7 1138 8874 7047 46% 4 135933 45026 92%
c i  4.94 16 23  7 1182 9038 7203 46% 5 135933 45023 92%
c i  5.14 16 23  7 1260 9326 7484 46% 5 135933 45021 92%
c i  5.30 16 23  7 1329 9579 7731 46% 5 135933 45020 92%
c a  5.57 16 23  7 1428 10006 8112 45% 5 135802 44986 92%
c W  5.70 16 23  7 1428 10007 8113 45% 5 135802 44986 92%
c }  5.73 16 23  7 1441 10056 8161 46% 5 135802 44986 92%
c [  5.73 16 22  7 1441 10056 8161 52% 8 135802 44986 92%
c i  6.12 16 22  7 1441 10664 8709 53% 8 135802 44985 92%
c i  6.16 16 22  7 1441 10732 8773 53% 8 135802 44984 92%
c
c  seconds  reductions     redundant  irredundant
c         MB     restarts         trail       variables
c          level      conflicts      glue          remaining
c
c -  6.20 16 21  8 1441 10804 6536 54% 8 135796 44984 92%
c i  6.75 16 19  8 1442 11767 7360 56% 8 135796 44978 92%
c i  6.75 16 19  8 1442 11773 7365 56% 8 135796 44976 92%
c i  6.75 16 20  8 1442 11790 7381 56% 8 135796 44975 92%
c 2  7.22 16 24  8 1443 12501 8028 56% 8 135237 44852 91%
c s  7.23 16 24  8 1443 12501 8028 56% 8 134857 44846 91%
c e  7.51 14 24  8 1443 12501 8028 56% 8 35318 5248 11%
c s  7.52 14 24  8 1443 12501 8028 56% 8 35230 5248 11%
c e  7.54 14 24  8 1443 12501 8028 56% 8 34871 5168 11%
c -  7.67 11 24  9 1443 13504 1321 56% 8 34798 5168 11%
c d  7.87 11 21  9 1444 15002 2641 57% 8 34730 5136 10%
c d  7.87 11 21  9 1444 15002 2641 57% 8 34726 5135 10%
c 3  7.89 11 21  9 1444 15002 7046 57% 8 34725 5135 10%
c t  7.90 11 21  9 1444 15002 6892 57% 8 34111 5130 10%
c f  7.92 11 21  9 1444 15002 17043 57% 8 34104 5105 10%
c f  7.93 11 21  9 1444 15002 17368 57% 8 34034 5105 10%
c u  7.98 11 21  9 1444 15002 17132 57% 8 34034 5105 10%
c v  7.99 11 21  9 1444 15002 16986 57% 8 34034 5105 10%
c w  8.01 11 21  9 1444 15002 17059 57% 8 33949 5105 10%
c d  8.02 11 21  9 1444 15002 16714 57% 8 33610 4936 10%
c
c  seconds  reductions      redundant  irredundant
c         MB     restarts          trail     variables
c          level      conflicts       glue        remaining
c
c i  8.02 11 21  9 1444 15002 16714 57% 8 33610 4936 10%
c O  8.02 11 21  9 1444 15009 16721 57% 8 33610 4936 10%
c -  8.22 11 20 10 1446 16504 4602 57% 8 33534 4936 10%
c ]  8.60 12 18 10 1447 19108 6717 57% 7 33530 4936 10%
c {  8.60 12 23 10 1447 19108 6717 46% 5 33530 4936 10%
c -  8.68 12 22 11 1461 19805 6091 46% 5 33530 4936 10%
c B  8.84 12 21 11 1572 21011 7220 48% 5 33530 4936 10%
c d  8.91 12 21 11 1641 21403 7572 48% 5 33515 4931 10%
c 3  8.93 11 21 11 1641 21403 11657 48% 5 33494 4931 10%
c t  8.94 11 21 11 1641 21403 11048 48% 5 33306 4931 10%
c f  8.96 11 21 11 1641 21403 20365 48% 5 33306 4928 10%
c f  8.97 11 21 11 1641 21403 20708 48% 5 33299 4928 10%
c u  9.02 11 21 11 1641 21403 20352 48% 5 33299 4928 10%
c v  9.03 11 21 11 1641 21403 20298 48% 5 33299 4928 10%
c w  9.05 12 21 11 1641 21403 20298 48% 5 32970 4928 10%
c d  9.06 12 21 11 1641 21403 20233 48% 5 32881 4891 10%
c d  9.06 12 21 11 1641 21403 20231 48% 5 32879 4890 10%
c i  9.06 12 21 11 1641 21403 20231 48% 5 32879 4890 10%
c i  9.37 12 19 11 1852 23369 22040 49% 5 32879 4881 10%
c -  9.38 12 19 12 1852 23406 8757 49% 5 32835 4881 10%
c
c  seconds  reductions     redundant  irredundant
c         MB     restarts         trail     variables
c          level      conflicts      glue        remaining
c
c i  9.49 12 18 12 1988 23986 9249 48% 5 32835 4880 10%
c i  9.50 12 18 12 1988 24065 9282 48% 5 32835 4799 10%
c i  9.50 12 18 12 1988 24067 9282 48% 5 32835 4752 10%
c i  9.50 12 18 12 1988 24069 9282 48% 5 32835 4670 10%
c }  9.50 12 18 12 1988 24074 9285 48% 5 32835 4375 9%
c 0  9.50 12 18 12 1988 24074 9285 48% 5 32835 4375 9%
c
c ---- [ result ] ------------------------------------------------------------
c
s UNSATISFIABLE
c
c ---- [ profiling ] ---------------------------------------------------------
c
c           7.93   83.45 %  search
c           4.46   46.88 %  focused
c           3.48   36.57 %  stable
c           1.54   16.16 %  simplify
c           1.05   11.01 %  probe
c           0.55    5.80 %  vivify
c           0.32    3.41 %  eliminate
c           0.23    2.41 %  failed
c           0.12    1.24 %  substitute
c           0.12    1.22 %  walking
c           0.09    0.93 %  ternary
c           0.06    0.62 %  transitive
c           0.05    0.57 %  reduce
c           0.05    0.52 %  autarky
c           0.04    0.39 %  parse
c =============================================
c           9.50  100.00 %  total
c
c ---- [ statistics ] --------------------------------------------------------
c
c conflicts:                            24074             2533.02 per second
c decisions:                            84645                3.52 per conflict
c propagations:                      96253949         10127645    per second
c reductions:                              12             2006    interval
c rephased:                                 6             4012    interval
c restarts:                              1988               12.11 interval
c
c ---- [ resources ] ---------------------------------------------------------
c
c maximum-resident-set-size:         18198528 bytes         17 MB
c process-time:                             9s               9.50 seconds
c
c ---- [ shutting down ] -----------------------------------------------------
c
c exit 20

SAT solver OK

VALID
c array.sh: end:      Tue Feb 16 22:30:27 CET 2021
